num_offers = 35;
num_halls = 10;
start=[46,4,85,18,23,19,95,17,35,73,47,43,72,57,2,6,15,31,15,41,3,33,63,7,11,48,17,23,9,22,88,7,5,16,20];
end=[81,7,89,73,32,79,99,49,88,74,78,59,100,99,46,27,40,54,80,100,19,36,100,86,49,49,71,88,10,85,100,43,24,58,70];
price=[2483,319,496,2999,198,3057,245,1626,1753,176,2251,1108,2028,2405,3082,520,2359,1030,4808,2942,1027,355,3211,1615,1126,39,4292,6049,79,2379,227,2196,1573,742,1852];
requirement=[892,832,979,208,338,545,676,821,574,249,875,845,843,234,874,987,871,790,233,596,779,942,405,400,691,973,770,347,388,897,739,791,741,719,420];
capacity=[742,812,875,623,821,721,984,774,562,281];
